(set-logic QF_S)
(declare-fun var0 () String)
(declare-fun var1 () Int)
(declare-fun var2 () Bool)
(declare-fun var3 () String)
(declare-fun var4 () Int)
(declare-fun var5 () Bool)
(declare-fun var6 () String)
(declare-fun var7 () Int)
(declare-fun var8 () Bool)
(assert (str.suffixof (str.replace var3 var6 var0) (str.at (str.at var6 var4) (str.indexof "*pe$TnvcZT" var6 var1))))
(assert (<= (str.len (str.substr var0 10 var1)) (str.indexof var0 var0 var7)))
(assert (str.prefixof var6 var3))
(assert (> (str.indexof var3 var0 var7) (str.indexof var0 var0 4)))
(check-sat)